NAME          BLANK   
ROWS
 N  OBJROW
 L  R0000000
COLUMNS
    C0000000  OBJROW     -730.         R0000000  375.        
    C0000001  OBJROW     -236.         R0000000  792.        
    C0000002  OBJROW     -495.         R0000000  323.        
    C0000003  OBJROW     -905.         R0000000  661.        
    C0000004  OBJROW     -745.         R0000000  379.        
    C0000005  OBJROW     -688.         R0000000  334.        
    C0000006  OBJROW     -849.         R0000000  389.        
    C0000007  OBJROW     -939.         R0000000  849.        
    C0000008  OBJROW     -441.         R0000000  341.        
    C0000009  OBJROW     -217.         R0000000  70.         
    C0000010  OBJROW     -817.         R0000000  563.        
    C0000011  OBJROW     -481.         R0000000  264.        
    C0000012  OBJROW     -403.         R0000000  200.        
    C0000013  OBJROW     -764.         R0000000  782.        
RHS
    RHS       R0000000  14156.      
BOUNDS
 BV BOUND     C0000000  1.          
 BV BOUND     C0000001  1.          
 BV BOUND     C0000002  1.          
 BV BOUND     C0000003  1.          
 BV BOUND     C0000004  1.          
 BV BOUND     C0000005  1.          
 BV BOUND     C0000006  1.          
 BV BOUND     C0000007  1.          
 BV BOUND     C0000008  1.          
 BV BOUND     C0000009  1.          
 BV BOUND     C0000010  1.          
 BV BOUND     C0000011  1.          
 BV BOUND     C0000012  1.          
 BV BOUND     C0000013  1.          
ENDATA
